========================================================== 
File name: C:\DEGR\assets\definitions\MSRCPSP_Gen\200_40_64_10_C.def
Creation date: Wed May 03 10:47:39 CEST 2023
Website: http://imopse.ii.pwr.edu.pl/ 
Reference: 
Myszkowski P. B., Skowronski M. E., Olech L., Oslizlo K., 
Hybrid Ant Colony Optimization in solving Multi-Skill Resource-Constrained Project Scheduling Problem, 
Soft Computing, DOI: DOI 10.1007/s00500-014-1455-x 
========================================================== 
General characteristics: 
Tasks: 200
Resources: 40
Precedence relations: 64
Number of skill types: 10
========================================================== 
ResourceID 	 Salary 	 Skills 
1	 	 	22.0	 	 Q5: 2 	  Q8: 3 	  Q3: 3 	 
2	 	 	23.4	 	 Q5: 0 	  Q0: 0 	  Q1: 1 	  Q8: 3 	  Q2: 2 	 
3	 	 	27.3	 	 Q4: 1 	  Q0: 2 	 
4	 	 	63.4	 	 Q6: 3 	  Q4: 1 	  Q1: 2 	  Q5: 0 	  Q3: 0 	  Q7: 0 	  Q9: 2 	  Q8: 0 	  Q2: 1 	 
5	 	 	17.9	 	 Q8: 2 	  Q6: 0 	  Q7: 0 	  Q5: 0 	 
6	 	 	95.3	 	 Q0: 1 	  Q4: 3 	  Q6: 0 	  Q5: 2 	  Q2: 3 	  Q3: 0 	  Q1: 0 	 
7	 	 	24.5	 	 Q7: 3 	 
8	 	 	64.0	 	 Q2: 3 	  Q9: 2 	  Q0: 2 	  Q8: 1 	  Q6: 3 	  Q1: 1 	  Q5: 0 	 
9	 	 	33.2	 	 Q4: 3 	  Q8: 0 	 
10	 	 	93.2	 	 Q0: 1 	  Q9: 1 	 
11	 	 	67.7	 	 Q6: 1 	  Q4: 2 	  Q1: 2 	  Q9: 1 	  Q3: 0 	  Q7: 1 	 
12	 	 	61.4	 	 Q5: 1 	  Q0: 3 	  Q4: 2 	  Q9: 3 	  Q1: 2 	  Q2: 0 	 
13	 	 	53.6	 	 Q7: 3 	  Q2: 2 	 
14	 	 	40.1	 	 Q3: 0 	  Q6: 0 	  Q8: 2 	  Q5: 1 	  Q2: 1 	  Q9: 0 	  Q4: 3 	  Q0: 3 	 
15	 	 	90.4	 	 Q0: 2 	  Q3: 1 	  Q9: 2 	  Q8: 1 	  Q5: 0 	 
16	 	 	83.3	 	 Q4: 0 	 
17	 	 	79.5	 	 Q3: 2 	  Q4: 3 	  Q2: 1 	  Q7: 1 	  Q1: 2 	 
18	 	 	20.1	 	 Q1: 0 	  Q0: 1 	  Q3: 3 	  Q7: 2 	  Q6: 3 	  Q2: 1 	  Q8: 0 	  Q9: 1 	  Q4: 1 	 
19	 	 	28.8	 	 Q2: 1 	  Q9: 2 	 
20	 	 	80.2	 	 Q9: 0 	  Q6: 1 	  Q8: 1 	  Q5: 1 	  Q4: 1 	  Q7: 2 	  Q3: 2 	  Q1: 0 	  Q2: 2 	 
21	 	 	35.0	 	 Q9: 2 	  Q8: 2 	  Q5: 1 	  Q3: 0 	 
22	 	 	44.0	 	 Q9: 0 	 
23	 	 	53.2	 	 Q8: 1 	 
24	 	 	23.5	 	 Q4: 2 	  Q0: 0 	  Q7: 2 	  Q8: 2 	  Q2: 0 	  Q3: 0 	  Q1: 1 	  Q5: 3 	 
25	 	 	11.2	 	 Q1: 1 	  Q7: 2 	 
26	 	 	70.6	 	 Q1: 0 	 
27	 	 	20.1	 	 Q3: 0 	  Q0: 1 	  Q7: 0 	  Q5: 2 	  Q6: 1 	 
28	 	 	41.1	 	 Q2: 0 	  Q9: 1 	  Q5: 3 	  Q8: 1 	  Q4: 1 	 
29	 	 	37.5	 	 Q5: 2 	  Q0: 1 	  Q9: 1 	  Q8: 1 	  Q3: 0 	  Q4: 0 	  Q1: 1 	  Q2: 0 	  Q6: 1 	 
30	 	 	65.6	 	 Q0: 2 	  Q4: 3 	  Q9: 3 	  Q3: 0 	 
31	 	 	40.6	 	 Q8: 2 	  Q0: 0 	  Q2: 2 	 
32	 	 	89.5	 	 Q6: 1 	  Q1: 2 	  Q8: 3 	  Q3: 1 	  Q0: 2 	 
33	 	 	64.7	 	 Q9: 0 	  Q5: 2 	  Q2: 0 	  Q8: 3 	 
34	 	 	57.7	 	 Q0: 3 	  Q8: 3 	  Q6: 0 	  Q5: 3 	  Q9: 0 	  Q2: 2 	  Q3: 2 	  Q7: 1 	 
35	 	 	77.1	 	 Q2: 2 	  Q7: 3 	  Q0: 3 	 
36	 	 	49.5	 	 Q7: 0 	  Q2: 3 	  Q4: 0 	  Q9: 0 	  Q5: 1 	  Q1: 0 	  Q8: 0 	  Q0: 3 	 
37	 	 	46.1	 	 Q7: 3 	  Q8: 1 	  Q0: 1 	  Q3: 3 	 
38	 	 	29.3	 	 Q4: 1 	  Q6: 3 	  Q2: 1 	  Q1: 0 	  Q0: 3 	  Q8: 3 	  Q3: 3 	 
39	 	 	22.8	 	 Q4: 3 	  Q6: 3 	  Q5: 2 	 
40	 	 	27.8	 	 Q6: 2 	  Q0: 2 	  Q9: 0 	 
========================================================== 
TaskID 	 Duration 	 Skill 	 Predecessor IDs 
1	24	Q4:	2
2	14	Q4:	0
3	10	Q3:	3
4	35	Q7:	1
5	22	Q6:	1
6	32	Q3:	0
7	39	Q9:	0
8	22	Q1:	0
9	15	Q5:	3
10	33	Q6:	0
11	16	Q0:	0
12	22	Q0:	1
13	39	Q0:	0
14	20	Q7:	0
15	20	Q5:	3
16	32	Q5:	0
17	24	Q8:	1
18	36	Q8:	1
19	9	Q3:	2	5
20	16	Q4:	2
21	9	Q4:	1
22	23	Q6:	3	10
23	23	Q3:	0
24	34	Q0:	2
25	18	Q0:	2
26	33	Q2:	0
27	31	Q1:	0
28	22	Q2:	1
29	27	Q9:	3
30	19	Q0:	0
31	16	Q0:	1
32	37	Q5:	2
33	31	Q1:	0
34	24	Q3:	3	31
35	31	Q4:	0
36	22	Q2:	0	23
37	40	Q8:	0
38	19	Q6:	3
39	39	Q4:	2
40	9	Q3:	0
41	16	Q5:	2	31
42	15	Q6:	0
43	35	Q8:	1
44	18	Q6:	0
45	18	Q1:	0
46	17	Q4:	1
47	26	Q2:	2
48	18	Q0:	2
49	11	Q7:	1
50	33	Q5:	2
51	16	Q5:	0
52	31	Q8:	1
53	18	Q5:	0
54	14	Q8:	0
55	35	Q6:	2
56	10	Q0:	2
57	11	Q9:	0
58	19	Q0:	2
59	17	Q9:	1
60	32	Q0:	1
61	38	Q6:	2
62	21	Q3:	1
63	23	Q9:	0
64	21	Q0:	2
65	13	Q7:	0
66	37	Q0:	3
67	16	Q0:	0
68	18	Q2:	2
69	34	Q4:	3
70	30	Q2:	0	45
71	27	Q8:	0
72	38	Q2:	1
73	22	Q1:	2	58
74	34	Q4:	0
75	15	Q0:	3
76	28	Q9:	3	70
77	19	Q6:	0
78	40	Q2:	3
79	24	Q4:	3	32
80	16	Q6:	1
81	37	Q4:	3
82	10	Q2:	0
83	19	Q7:	0	64
84	11	Q3:	0
85	20	Q9:	0
86	23	Q1:	1
87	24	Q8:	2	69
88	30	Q4:	0	28
89	36	Q7:	0	51
90	33	Q0:	0	85	68	37	10
91	38	Q4:	2
92	23	Q9:	3
93	29	Q2:	3
94	16	Q9:	2
95	13	Q7:	0	69
96	20	Q8:	0	71
97	9	Q6:	0
98	33	Q6:	1
99	27	Q7:	0
100	11	Q2:	2
101	21	Q0:	0
102	20	Q9:	1	31
103	20	Q1:	2
104	24	Q5:	0
105	19	Q0:	2
106	36	Q9:	3
107	9	Q7:	0
108	11	Q4:	0	29
109	32	Q1:	0
110	15	Q0:	2	64	48
111	13	Q3:	0	32
112	21	Q7:	2	43
113	37	Q0:	0
114	26	Q7:	1
115	25	Q6:	0
116	35	Q2:	0
117	34	Q8:	0
118	21	Q8:	2
119	32	Q3:	3
120	40	Q6:	1
121	15	Q5:	3	34	93
122	36	Q8:	1
123	40	Q1:	2	71	96
124	13	Q7:	0
125	34	Q8:	3
126	12	Q3:	2
127	33	Q6:	1
128	24	Q4:	3
129	10	Q6:	3
130	13	Q9:	2
131	9	Q8:	2
132	16	Q2:	3
133	24	Q5:	0	99
134	29	Q5:	1	38
135	30	Q3:	2	91
136	22	Q7:	3	130
137	21	Q2:	3
138	11	Q4:	1
139	26	Q7:	0
140	30	Q0:	0	63	103
141	20	Q4:	1
142	27	Q4:	3
143	35	Q7:	2	116
144	29	Q2:	1
145	18	Q3:	1
146	19	Q5:	2
147	9	Q8:	3	72	8
148	17	Q8:	3	45
149	12	Q8:	3
150	16	Q6:	3	76
151	15	Q0:	2	49	34
152	18	Q4:	3
153	37	Q9:	3	133
154	31	Q4:	3
155	13	Q2:	1	100
156	25	Q0:	0
157	40	Q4:	2
158	14	Q5:	0	103
159	30	Q3:	1
160	35	Q6:	1	92
161	17	Q0:	0	135	67
162	19	Q4:	2
163	28	Q6:	2	155
164	21	Q0:	1
165	27	Q0:	0
166	39	Q3:	0	97
167	25	Q4:	2
168	27	Q4:	1
169	29	Q4:	0
170	32	Q8:	1
171	15	Q5:	3
172	33	Q0:	0
173	37	Q3:	2
174	9	Q9:	3
175	40	Q3:	2
176	9	Q7:	3
177	29	Q9:	1	31
178	27	Q5:	0
179	24	Q9:	3
180	33	Q4:	1
181	26	Q4:	0
182	9	Q3:	3	105
183	27	Q4:	3
184	29	Q1:	2
185	30	Q8:	1
186	9	Q4:	0	108	96
187	36	Q4:	3
188	17	Q9:	0	35	58
189	9	Q5:	3
190	30	Q2:	0	136
191	31	Q2:	3	14
192	9	Q6:	3	71	135
193	36	Q0:	0
194	13	Q4:	3	86	85
195	25	Q5:	1	54
196	40	Q9:	2
197	36	Q7:	2
198	31	Q5:	3
199	29	Q8:	2
200	29	Q5:	2	169
========================================================== 